(set-logic QF_S)
(declare-fun var0 () String)
(declare-fun var1 () String)
(declare-fun var2 () String)
(declare-fun var3 () String)
(declare-fun var4 () Int)
(declare-fun var5 () Int)
(declare-fun var6 () Int)
(declare-fun var7 () Int)
(assert (<= (str.indexof var0 var1 84) (str.len var2)))
(assert (str.prefixof (str.at (str.substr var3 var4 var5) (str.len var0)) (str.replace (str.at var2 var6) (str.replace var3 "9VN" var0) (str.substr var3 190 var7))))
(assert (<= (str.len var1) (str.indexof (str.at var2 var5) (str.at var1 var7) (str.len var2))))
(assert (str.contains var0 var1))
(check-sat)